% demand
num_movements = 35;
loading_factor = [1450, 1150, 1700, 800, 1000, 1000, 1900, 1150, 1500, 1050, 1400, 1050, 1300, 1000, 1650, 1150, 1950, 1250, 1400, 1300, 1100, 1350, 1900, 1400, 800, 1300, 1650, 850, 1600, 1600, 850, 1450, 1150, 1850, 1250];
pickup_time = [0, 0, 0, 0, 0, 0, 0, 0, 1, 1, 1, 1, 2, 2, 3, 3, 3, 3, 3, 4, 4, 7, 7, 7, 7, 7, 8, 8, 9, 9, 9, 9, 9, 10, 10];
delivery_time = [1, 5, 1, 2, 3, 1, 3, 3, 2, 3, 3, 3, 3, 3, 5, 5, 5, 6, 6, 6, 9, 9, 9, 9, 11, 9, 9, 9, 11, 11, 11, 11, 11, 11, 11];

% transporter definition
total_capacity = 11000;
num_decks = 4;
capacity = [3000, 3000, 1000, 4000];

% ways out of decks
num_ways_out = 2;
paths_out = array3d(decks, ways_out, decks, [
% ways out of deck d1
2, 4, 0, 0, 3, 4, 0, 0, 

% ways out of deck d2
4, 0, 0, 0, 0, 0, 0, 0,	

% ways out of deck d3
4, 0, 0, 0, 0, 0, 0, 0,	

% ways out of deck d4
0, 0, 0, 0,	0, 0, 0, 0,	

]);

